(set-logic QF_S)
(declare-fun var0 () String)
(declare-fun var1 () String)
(declare-fun var2 () String)
(declare-fun var3 () Int)
(declare-fun var4 () Int)
(declare-fun var5 () Int)
(declare-fun var6 () Bool)
(declare-fun var7 () Bool)
(declare-fun var8 () Bool)
(assert (str.suffixof var1 var0))
(assert (str.contains (str.substr var1 var3 var5) (str.replace var1 var1 var2)))
(assert (<= var4 var5))
(assert (str.contains var2 var2))
(check-sat)